Gurobi 12.0.1:   lim:time = 14400
  mip:bestbound = 1
Set parameter LogToConsole to value 1
  tech:outlev = 1
Set parameter Cuts to value 3
  cut:cuts = 3
Set parameter Presolve to value 2
  pre:solve = 2
Set parameter MIPFocus to value 2
  mip:focus = 2
Set parameter Symmetry to value 2
  mip:symmetry = 2
Set parameter InfUnbdInfo to value 1
Gurobi Optimizer version 12.0.1 build v12.0.1rc0 (win64 - Windows 11.0 (26100.2))

CPU model: Intel(R) Core(TM) i7-10700 CPU @ 2.90GHz, instruction set [SSE2|AVX|AVX2]
Thread count: 8 physical cores, 16 logical processors, using up to 16 threads

Non-default parameters:
TimeLimit  14400
MIPFocus  2
Symmetry  2
Cuts  3
InfUnbdInfo  1
Presolve  2

Optimize a model with 210 rows, 153 columns and 931 nonzeros
Model fingerprint: 0xa6293551
Model has 2 quadratic constraints
Variable types: 20 continuous, 133 integer (0 binary)
Coefficient statistics:
  Matrix range     [1e+00, 1e+05]
  QMatrix range    [1e+00, 1e+00]
  QLMatrix range   [2e+00, 2e+01]
  Objective range  [9e+00, 1e+02]
  Bounds range     [1e+00, 9e+01]
  RHS range        [1e+00, 1e+05]
  QRHS range       [1e+02, 1e+02]
Presolve removed 27 rows and 38 columns
Presolve time: 0.01s
Presolved: 212 rows, 142 columns, 963 nonzeros
Variable types: 12 continuous, 130 integer (130 binary)
Found heuristic solution: objective 366.9100000
Root relaxation presolve removed 56 rows and 0 columns
Root relaxation presolved: 126 rows, 162 columns, 666 nonzeros


Root relaxation: objective 2.148537e+02, 27 iterations, 0.00 seconds (0.00 work units)

    Nodes    |    Current Node    |     Objective Bounds      |     Work
 Expl Unexpl |  Obj  Depth IntInf | Incumbent    BestBd   Gap | It/Node Time

     0     0  214.85373    0   13  366.91000  214.85373  41.4%     -    0s
H    0     0                     324.1500000  214.85373  33.7%     -    0s
H    0     0                     316.7200000  234.22891  26.0%     -    0s
     0     0  245.28000    0   16  316.72000  245.28000  22.6%     -    0s
H    0     0                     296.6100000  245.28000  17.3%     -    0s
H    0     0                     283.1500000  245.28301  13.4%     -    0s
H    0     0                     264.0100000  245.28301  7.09%     -    0s
     0     0  247.32000    0   10  264.01000  247.32000  6.32%     -    0s
     0     0  258.70000    0   10  264.01000  258.70000  2.01%     -    0s

Cutting planes:
  Learned: 2
  Lift-and-project: 10
  Implied bound: 2
  Projected implied bound: 1
  Flow cover: 5

Explored 1 nodes (92 simplex iterations) in 0.05 seconds (0.03 work units)
Thread count was 16 (of 16 available processors)

Solution count 6: 264.01 283.15 296.61 ... 366.91

Optimal solution found (tolerance 1.00e-04)
Best objective 2.640100000000e+02, best bound 2.640100000000e+02, gap 0.0000%

AMPL MP initial flat model has 153 variables (0 integer, 133 binary);
Objectives: 1 linear; 
Constraints:  210 linear; 2 quadratic;

AMPL MP final model has 153 variables (0 integer, 133 binary);
Objectives: 1 linear; 
Constraints:  210 linear; 2 quadratic;


-----RESULTS INFO-----
running_time:  0.125
TC.best_bound:  264.01
TC:  264.01
MIP Gap (%):  0
=== Vehicle Routes ===
Vehicle 1: 0 → 2
Vehicle 1: 1 → 3
Vehicle 1: 2 → 13
Vehicle 1: 3 → 14
Vehicle 1: 8 → 1
Vehicle 1: 13 → 8
Vehicle 2: 0 → 14

=== Full Vehicle Routes ===
Vehicle 1: 0 → 2 → 13 → 8 → 1 → 3 → 0 (48<100)
Vehicle 2: 0 → 0 (0<100)
Arc used by MRT line: y variables:
Customer assigment to PL: u variables:
4 8
5 13
Node is served by regular vehicle: g variables:
1
2
3
13
8
Customer assigment to Home delivery: gm variables:
1
2
3
Node total demands: ntd variables:
1 18 1
2 8 1
3 2 1
5 0 0
12 0 0
13 8 1
6 0 0
7 0 0
8 12 1
9 0 0
10 0 0
11 0 0
Customer's demand delivered to PL: l variables:
4
5
Lockers load <= capacity:
0 <= 77
8 <= 82
0 <= 90
0 <= 93
12 <= 72
0 <= 98
0 <= 80
0 <= 98
